num_offers = 35;
num_halls = 10;
start=[16,77,68,36,57,20,25,20,46,45,32,39,8,19,11,80,55,22,16,82,65,77,8,75,29,2,35,46,10,33,26,12,4,46,10];
end=[32,94,72,85,95,45,48,28,50,88,35,86,14,94,64,87,66,49,77,85,91,89,27,96,71,85,43,93,98,59,68,93,73,84,18];
price=[734,217,269,2364,3394,1146,1476,588,282,2767,147,3118,654,4497,5206,264,429,2209,3443,246,408,672,424,1584,4132,8089,335,2400,5837,2691,2359,5324,4018,449,175];
requirement=[254,996,865,939,441,525,576,813,865,643,986,862,995,338,234,757,843,374,329,313,307,380,403,647,962,281,745,792,487,378,312,660,525,311,565];
capacity=[315,735,608,476,925,281,210,541,773,832];
